job_count = 12 ;
duration = [|34, 22, 17, 4|27, 9, 15, 8|17, 17, 16, 2|11, 29, 10, 4|7, 23, 14, 1|24, 24, 12, 1|39, 11, 13, 4|28, 28, 17, 3|38, 17, 11, 2|18, 6, 9, 5|11, 10, 10, 2|8, 8, 9, 4|] ;
machine_count = 4 ;
cost = [|10, 22, 50, 42|12, 38, 40, 67|11, 30, 40, 76|11, 35, 30, 74|15, 28, 30, 49|19, 37, 41, 58|13, 35, 39, 56|17, 33, 53, 55|16, 29, 39, 48|15, 38, 42, 40|10, 33, 54, 78|10, 30, 49, 78|] ;
deadline = [25, 25, 25, 25, 25, 25, 25, 25, 25, 25, 25, 25] ;
release = [0, 0, 0, 0, 0, 0, 0, 0, 0, 0, 0, 0] ;
resource = [|4, 4, 4, 4|1, 1, 1, 1|6, 6, 6, 6|4, 4, 4, 4|9, 9, 9, 9|5, 5, 5, 5|5, 5, 5, 5|2, 2, 2, 2|4, 4, 4, 4|1, 1, 1, 1|2, 2, 2, 2|5, 5, 5, 5|] ;
capacities = [10, 10, 10, 10] ;
